75
0 43 23 46 28 8 25 54 49 47 
7 11 17 38 73 63 53 56 60 3 
62 15 9 39 20 18 4 27 31 41 
71 65 44 12 29 1 67 66 19 6 
74 16 13 5 30 45 59 50 35 36 
40 51 48 2 68 34 26 33 52 32 
69 22 70 58 21 24 10 14 61 55 
37 64 72 57 42 
